100 500 10 200 10 100
24 199
14 128
68 180
39 56
87 71
26 84
92 125
46 73
13 32
73 68
22 35
56 169
16 143
90 41
85 15
40 177
95 178
31 174
32 50
37 117
99 77
81 73
77 194
67 175
65 188
26 95
46 115
51 139
100 192
28 147
84 94
46 33
18 49
94 72
81 69
12 44
92 193
85 172
63 86
65 55
45 32
21 108
70 68
50 37
56 16
16 79
42 142
70 15
73 142
97 114
11 101
85 181
45 76
77 144
74 165
41 47
94 150
53 168
68 12
86 90
77 191
69 153
98 60
75 113
19 79
76 45
70 186
66 128
46 22
28 34
91 82
82 185
11 37
10 62
43 169
100 92
78 122
81 91
61 46
99 16
79 63
80 129
14 89
69 121
94 162
77 99
100 38
85 66
99 57
87 139
71 103
67 175
18 87
40 17
18 102
92 60
84 64
89 46
86 78
92 66
